Number of Elements,Max Von Mises Stress [MPa]
848,160.42
3492,216.38
13275,284.05
52326,371.47
142494,462.49
316808,561.26
492205,611.31
559665,629.89
